c Generated map
c Size: 8 * 8, weights in range: 1 to 10, walls: True, with ratio 0.1
c dim 8 of 9
c
p sp 64 91
c graph contains 64 nodes and 91 arcs
c
a 1 9 6
a 9 1 6
a 1 2 9
a 2 1 9
a 2 10 1
a 10 2 1
a 2 3 1
a 3 2 1
a 3 11 8
a 11 3 8
a 3 4 7
a 4 3 7
a 4 12 7
a 12 4 7
a 6 14 10
a 14 6 10
a 8 16 7
a 16 8 7
a 9 17 6
a 17 9 6
a 9 10 10
a 10 9 10
a 10 18 9
a 18 10 9
a 10 11 10
a 11 10 10
a 11 19 4
a 19 11 4
a 11 12 1
a 12 11 1
a 12 20 9
a 20 12 9
a 12 13 1
a 13 12 1
a 13 21 10
a 21 13 10
a 13 14 8
a 14 13 8
a 14 22 9
a 22 14 9
a 14 15 7
a 15 14 7
a 15 23 7
a 23 15 7
a 15 16 10
a 16 15 10
a 16 24 8
a 24 16 8
a 17 25 6
a 25 17 6
a 17 18 4
a 18 17 4
a 18 26 8
a 26 18 8
a 18 19 8
a 19 18 8
a 19 27 10
a 27 19 10
a 19 20 2
a 20 19 2
a 20 21 5
a 21 20 5
a 21 29 10
a 29 21 10
a 21 22 10
a 22 21 10
a 22 23 10
a 23 22 10
a 23 31 9
a 31 23 9
a 23 24 8
a 24 23 8
a 25 33 7
a 33 25 7
a 25 26 10
a 26 25 10
a 26 34 8
a 34 26 8
a 26 27 7
a 27 26 7
a 27 35 8
a 35 27 8
a 29 37 3
a 37 29 3
a 33 41 10
a 41 33 10
a 33 34 3
a 34 33 3
a 34 42 8
a 42 34 8
a 34 35 6
a 35 34 6
a 35 43 8
a 43 35 8
a 35 36 5
a 36 35 5
a 36 44 3
a 44 36 3
a 36 37 9
a 37 36 9
a 37 45 9
a 45 37 9
a 37 38 3
a 38 37 3
a 38 46 4
a 46 38 4
a 40 48 5
a 48 40 5
a 41 49 10
a 49 41 10
a 41 42 5
a 42 41 5
a 42 50 7
a 50 42 7
a 42 43 3
a 43 42 3
a 43 51 4
a 51 43 4
a 43 44 8
a 44 43 8
a 44 52 4
a 52 44 4
a 44 45 4
a 45 44 4
a 45 53 2
a 53 45 2
a 45 46 4
a 46 45 4
a 46 54 7
a 54 46 7
a 46 47 1
a 47 46 1
a 47 55 6
a 55 47 6
a 47 48 1
a 48 47 1
a 48 56 7
a 56 48 7
a 49 57 1
a 57 49 1
a 49 50 9
a 50 49 9
a 50 58 3
a 58 50 3
a 50 51 2
a 51 50 2
a 51 59 7
a 59 51 7
a 51 52 6
a 52 51 6
a 52 60 4
a 60 52 4
a 52 53 10
a 53 52 10
a 53 61 6
a 61 53 6
a 53 54 3
a 54 53 3
a 54 62 10
a 62 54 10
a 54 55 1
a 55 54 1
a 55 63 4
a 63 55 4
a 55 56 3
a 56 55 3
a 56 64 6
a 64 56 6
a 57 58 10
a 58 57 10
a 58 59 3
a 59 58 3
a 59 60 3
a 60 59 3
a 60 61 10
a 61 60 10
a 61 62 10
a 62 61 10
a 62 63 1
a 63 62 1
a 63 64 9
a 64 63 9
